\ENCODING=ISO-8859-1
\Problem name: IloCplex

Minimize
 obj1: Lambda(1) + Lambda(2) + Lambda(3) + Lambda(4) + Lambda(5) + Lambda(6)
       + Lambda(7) + Lambda(8) + Lambda(9) + Lambda(10) + Lambda(11)
       + Lambda(12) + Lambda(13) + Lambda(14) + Lambda(15) + Lambda(16)
       + Lambda(17) + Lambda(18) + Lambda(19) + Lambda(20) + Lambda(21)
       + Lambda(22) + Lambda(23) + Lambda(24) + Lambda(25) + Lambda(26)
       + Lambda(27) + Lambda(28) + Lambda(29) + Lambda(30) + Lambda(31)
       + Lambda(32) + Lambda(33) + Lambda(34) + Lambda(35) + Lambda(36)
       + Lambda(37) + Lambda(38) + Lambda(39) + Lambda(40) + Lambda(41)
       + Lambda(42) + Lambda(43) + Lambda(44) + Lambda(45) + Lambda(46)
       + Lambda(47) + Lambda(48) + Lambda(49) + Lambda(50) + Lambda(51)
       + Lambda(52) + Lambda(53) + Lambda(54) + Lambda(55) + Lambda(56)
       + Lambda(57) + Lambda(58) + Lambda(59) + Lambda(60) + Lambda(61)
       + Lambda(62) + Lambda(63) + Lambda(64) + Lambda(65) + Lambda(66)
       + Lambda(67) + Lambda(68) + Lambda(69) + Lambda(70) + Lambda(71)
       + Lambda(72) + Lambda(73) + Lambda(74) + Lambda(75) + Lambda(76)
       + Lambda(77) + Lambda(78) + Lambda(79) + Lambda(80) + Lambda(81)
       + Lambda(82) + Lambda(83) + Lambda(84) + Lambda(85) + Lambda(86)
       + Lambda(87) + Lambda(88) + Lambda(89) + Lambda(90) + Lambda(91)
       + Lambda(92) + Lambda(93) + Lambda(94) + Lambda(95) + Lambda(96)
       + Lambda(97) + Lambda(98) + Lambda(99) + Lambda(100) + Lambda(101)
       + Lambda(102) + Lambda(103) + Lambda(104) + Lambda(105) + Lambda(106)
       + Lambda(107) + Lambda(108) + Lambda(109) + Lambda(110) + Lambda(111)
       + Lambda(112) + Lambda(113) + Lambda(114) + Lambda(115) + Lambda(116)
       + Lambda(117) + Lambda(118) + Lambda(119) + Lambda(120) + Lambda(121)
       + Lambda(122) + Lambda(123) + Lambda(124) + Lambda(125) + Lambda(126)
       + Lambda(127) + Lambda(128) + Lambda(129) + Lambda(130) + Lambda(131)
       + Lambda(132) + Lambda(133) + Lambda(134) + Lambda(135) + Lambda(136)
       + Lambda(137) + Lambda(138) + Lambda(139) + Lambda(140) + Lambda(141)
       + Lambda(142) + Lambda(143) + Lambda(144) + Lambda(145) + Lambda(146)
       + Lambda(147) + Lambda(148) + Lambda(149) + Lambda(150) + Lambda(151)
       + Lambda(152) + Lambda(153) + Lambda(154) + Lambda(155) + Lambda(156)
       + Lambda(157) + Lambda(158) + Lambda(159) + Lambda(160) + Lambda(161)
       + Lambda(162) + Lambda(163) + Lambda(164) + Lambda(165) + Lambda(166)
       + Lambda(167) + Lambda(168) + Lambda(169) + Lambda(170) + Lambda(171)
       + Lambda(172) + Lambda(173) + Lambda(174) + Lambda(175) + Lambda(176)
       + Lambda(177) + Lambda(178) + Lambda(179) + Lambda(180) + Lambda(181)
       + Lambda(182) + Lambda(183) + Lambda(184) + Lambda(185) + Lambda(186)
       + Lambda(187) + Lambda(188) + Lambda(189) + Lambda(190) + Lambda(191)
       + Lambda(192) + Lambda(193) + Lambda(194) + Lambda(195) + Lambda(196)
       + Lambda(197) + Lambda(198) + Lambda(199) + Lambda(200) + Lambda(201)
Subject To
 c1:   Lambda(1) <= 1
 c2:   Lambda(2) <= 1
 c3:   Lambda(3) <= 1
 c4:   Lambda(4) <= 1
 c5:   Lambda(5) <= 1
 c6:   Lambda(6) <= 1
 c7:   Lambda(7) <= 1
 c8:   Lambda(8) <= 1
 c9:   Lambda(9) <= 1
 c10:  Lambda(10) <= 1
 c11:  Lambda(11) <= 1
 c12:  Lambda(12) <= 1
 c13:  Lambda(13) <= 1
 c14:  Lambda(14) <= 1
 c15:  Lambda(15) <= 1
 c16:  Lambda(16) <= 1
 c17:  Lambda(17) <= 1
 c18:  Lambda(18) <= 1
 c19:  Lambda(19) <= 1
 c20:  Lambda(20) <= 1
 c21:  Lambda(21) <= 1
 c22:  Lambda(22) <= 1
 c23:  Lambda(23) <= 1
 c24:  Lambda(24) <= 1
 c25:  Lambda(25) <= 1
 c26:  Lambda(26) <= 1
 c27:  Lambda(27) <= 1
 c28:  Lambda(28) <= 1
 c29:  Lambda(29) <= 1
 c30:  Lambda(30) <= 1
 c31:  Lambda(31) <= 1
 c32:  Lambda(32) <= 1
 c33:  Lambda(33) <= 1
 c34:  Lambda(34) <= 1
 c35:  Lambda(35) <= 1
 c36:  Lambda(36) <= 1
 c37:  Lambda(37) <= 1
 c38:  Lambda(38) <= 1
 c39:  Lambda(39) <= 1
 c40:  Lambda(40) <= 1
 c41:  Lambda(41) <= 1
 c42:  Lambda(42) <= 1
 c43:  Lambda(43) <= 1
 c44:  Lambda(44) <= 1
 c45:  Lambda(45) <= 1
 c46:  Lambda(46) <= 1
 c47:  Lambda(47) <= 1
 c48:  Lambda(48) <= 1
 c49:  Lambda(49) <= 1
 c50:  Lambda(50) <= 1
 c51:  Lambda(51) <= 1
 c52:  Lambda(52) <= 1
 c53:  Lambda(53) <= 1
 c54:  Lambda(54) <= 1
 c55:  Lambda(55) <= 1
 c56:  Lambda(56) <= 1
 c57:  Lambda(57) <= 1
 c58:  Lambda(58) <= 1
 c59:  Lambda(59) <= 1
 c60:  Lambda(60) <= 1
 c61:  Lambda(61) <= 1
 c62:  Lambda(62) <= 1
 c63:  Lambda(63) <= 1
 c64:  Lambda(64) <= 1
 c65:  Lambda(65) <= 1
 c66:  Lambda(66) <= 1
 c67:  Lambda(67) <= 1
 c68:  Lambda(68) <= 1
 c69:  Lambda(69) <= 1
 c70:  Lambda(70) <= 1
 c71:  Lambda(71) <= 1
 c72:  Lambda(72) <= 1
 c73:  Lambda(73) <= 1
 c74:  Lambda(74) <= 1
 c75:  Lambda(75) <= 1
 c76:  Lambda(76) <= 1
 c77:  Lambda(77) <= 1
 c78:  Lambda(78) <= 1
 c79:  Lambda(79) <= 1
 c80:  Lambda(80) <= 1
 c81:  Lambda(81) <= 1
 c82:  Lambda(82) <= 1
 c83:  Lambda(83) <= 1
 c84:  Lambda(84) <= 1
 c85:  Lambda(85) <= 1
 c86:  Lambda(86) <= 1
 c87:  Lambda(87) <= 1
 c88:  Lambda(88) <= 1
 c89:  Lambda(89) <= 1
 c90:  Lambda(90) <= 1
 c91:  Lambda(91) <= 1
 c92:  Lambda(92) <= 1
 c93:  Lambda(93) <= 1
 c94:  Lambda(94) <= 1
 c95:  Lambda(95) <= 1
 c96:  Lambda(96) <= 1
 c97:  Lambda(97) <= 1
 c98:  Lambda(98) <= 1
 c99:  Lambda(99) <= 1
 c100: Lambda(100) <= 1
 c101: Lambda(101) <= 1
 c102: Lambda(102) <= 1
 c103: Lambda(103) <= 1
 c104: Lambda(104) <= 1
 c105: Lambda(105) <= 1
 c106: Lambda(106) <= 1
 c107: Lambda(107) <= 1
 c108: Lambda(108) <= 1
 c109: Lambda(109) <= 1
 c110: Lambda(110) <= 1
 c111: Lambda(111) <= 1
 c112: Lambda(112) <= 1
 c113: Lambda(113) <= 1
 c114: Lambda(114) <= 1
 c115: Lambda(115) <= 1
 c116: Lambda(116) <= 1
 c117: Lambda(117) <= 1
 c118: Lambda(118) <= 1
 c119: Lambda(119) <= 1
 c120: Lambda(120) <= 1
 c121: Lambda(121) <= 1
 c122: Lambda(122) <= 1
 c123: Lambda(123) <= 1
 c124: Lambda(124) <= 1
 c125: Lambda(125) <= 1
 c126: Lambda(126) <= 1
 c127: Lambda(127) <= 1
 c128: Lambda(128) <= 1
 c129: Lambda(129) <= 1
 c130: Lambda(130) <= 1
 c131: Lambda(131) <= 1
 c132: Lambda(132) <= 1
 c133: Lambda(133) <= 1
 c134: Lambda(134) <= 1
 c135: Lambda(135) <= 1
 c136: Lambda(136) <= 1
 c137: Lambda(137) <= 1
 c138: Lambda(138) <= 1
 c139: Lambda(139) <= 1
 c140: Lambda(140) <= 1
 c141: Lambda(141) <= 1
 c142: Lambda(142) <= 1
 c143: Lambda(143) <= 1
 c144: Lambda(144) <= 1
 c145: Lambda(145) <= 1
 c146: Lambda(146) <= 1
 c147: Lambda(147) <= 1
 c148: Lambda(148) <= 1
 c149: Lambda(149) <= 1
 c150: Lambda(150) <= 1
 c151: Lambda(151) <= 1
 c152: Lambda(152) <= 1
 c153: Lambda(153) <= 1
 c154: Lambda(154) <= 1
 c155: Lambda(155) <= 1
 c156: Lambda(156) <= 1
 c157: Lambda(157) <= 1
 c158: Lambda(158) <= 1
 c159: Lambda(159) <= 1
 c160: Lambda(160) <= 1
 c161: Lambda(161) <= 1
 c162: Lambda(162) <= 1
 c163: Lambda(163) <= 1
 c164: Lambda(164) <= 1
 c165: Lambda(165) <= 1
 c166: Lambda(166) <= 1
 c167: Lambda(167) <= 1
 c168: Lambda(168) <= 1
 c169: Lambda(169) <= 1
 c170: Lambda(170) <= 1
 c171: Lambda(171) <= 1
 c172: Lambda(172) <= 1
 c173: Lambda(173) <= 1
 c174: Lambda(174) <= 1
 c175: Lambda(175) <= 1
 c176: Lambda(176) <= 1
 c177: Lambda(177) <= 1
 c178: Lambda(178) <= 1
 c179: Lambda(179) <= 1
 c180: Lambda(180) <= 1
 c181: Lambda(181) <= 1
 c182: Lambda(182) <= 1
 c183: Lambda(183) <= 1
 c184: Lambda(184) <= 1
 c185: Lambda(185) <= 1
 c186: Lambda(186) <= 1
 c187: Lambda(187) <= 1
 c188: Lambda(188) <= 1
 c189: Lambda(189) <= 1
 c190: Lambda(190) <= 1
 c191: Lambda(191) <= 1
 c192: Lambda(192) <= 1
 c193: Lambda(193) <= 1
 c194: Lambda(194) <= 1
 c195: Lambda(195) <= 1
 c196: Lambda(196) <= 1
 c197: Lambda(197) <= 1
 c198: Lambda(198) <= 1
 c199: Lambda(199) <= 1
 c200: Lambda(200) <= 1
 c201: Lambda(201) <= 1
Bounds
 0 <= Lambda(1) <= 1
 0 <= Lambda(2) <= 1
 0 <= Lambda(3) <= 1
 0 <= Lambda(4) <= 1
 0 <= Lambda(5) <= 1
 0 <= Lambda(6) <= 1
 0 <= Lambda(7) <= 1
 0 <= Lambda(8) <= 1
 0 <= Lambda(9) <= 1
 0 <= Lambda(10) <= 1
 0 <= Lambda(11) <= 1
 0 <= Lambda(12) <= 1
 0 <= Lambda(13) <= 1
 0 <= Lambda(14) <= 1
 0 <= Lambda(15) <= 1
 0 <= Lambda(16) <= 1
 0 <= Lambda(17) <= 1
 0 <= Lambda(18) <= 1
 0 <= Lambda(19) <= 1
 0 <= Lambda(20) <= 1
 0 <= Lambda(21) <= 1
 0 <= Lambda(22) <= 1
 0 <= Lambda(23) <= 1
 0 <= Lambda(24) <= 1
 0 <= Lambda(25) <= 1
 0 <= Lambda(26) <= 1
 0 <= Lambda(27) <= 1
 0 <= Lambda(28) <= 1
 0 <= Lambda(29) <= 1
 0 <= Lambda(30) <= 1
 0 <= Lambda(31) <= 1
 0 <= Lambda(32) <= 1
 0 <= Lambda(33) <= 1
 0 <= Lambda(34) <= 1
 0 <= Lambda(35) <= 1
 0 <= Lambda(36) <= 1
 0 <= Lambda(37) <= 1
 0 <= Lambda(38) <= 1
 0 <= Lambda(39) <= 1
 0 <= Lambda(40) <= 1
 0 <= Lambda(41) <= 1
 0 <= Lambda(42) <= 1
 0 <= Lambda(43) <= 1
 0 <= Lambda(44) <= 1
 0 <= Lambda(45) <= 1
 0 <= Lambda(46) <= 1
 0 <= Lambda(47) <= 1
 0 <= Lambda(48) <= 1
 0 <= Lambda(49) <= 1
 0 <= Lambda(50) <= 1
 0 <= Lambda(51) <= 1
 0 <= Lambda(52) <= 1
 0 <= Lambda(53) <= 1
 0 <= Lambda(54) <= 1
 0 <= Lambda(55) <= 1
 0 <= Lambda(56) <= 1
 0 <= Lambda(57) <= 1
 0 <= Lambda(58) <= 1
 0 <= Lambda(59) <= 1
 0 <= Lambda(60) <= 1
 0 <= Lambda(61) <= 1
 0 <= Lambda(62) <= 1
 0 <= Lambda(63) <= 1
 0 <= Lambda(64) <= 1
 0 <= Lambda(65) <= 1
 0 <= Lambda(66) <= 1
 0 <= Lambda(67) <= 1
 0 <= Lambda(68) <= 1
 0 <= Lambda(69) <= 1
 0 <= Lambda(70) <= 1
 0 <= Lambda(71) <= 1
 0 <= Lambda(72) <= 1
 0 <= Lambda(73) <= 1
 0 <= Lambda(74) <= 1
 0 <= Lambda(75) <= 1
 0 <= Lambda(76) <= 1
 0 <= Lambda(77) <= 1
 0 <= Lambda(78) <= 1
 0 <= Lambda(79) <= 1
 0 <= Lambda(80) <= 1
 0 <= Lambda(81) <= 1
 0 <= Lambda(82) <= 1
 0 <= Lambda(83) <= 1
 0 <= Lambda(84) <= 1
 0 <= Lambda(85) <= 1
 0 <= Lambda(86) <= 1
 0 <= Lambda(87) <= 1
 0 <= Lambda(88) <= 1
 0 <= Lambda(89) <= 1
 0 <= Lambda(90) <= 1
 0 <= Lambda(91) <= 1
 0 <= Lambda(92) <= 1
 0 <= Lambda(93) <= 1
 0 <= Lambda(94) <= 1
 0 <= Lambda(95) <= 1
 0 <= Lambda(96) <= 1
 0 <= Lambda(97) <= 1
 0 <= Lambda(98) <= 1
 0 <= Lambda(99) <= 1
 0 <= Lambda(100) <= 1
 0 <= Lambda(101) <= 1
 0 <= Lambda(102) <= 1
 0 <= Lambda(103) <= 1
 0 <= Lambda(104) <= 1
 0 <= Lambda(105) <= 1
 0 <= Lambda(106) <= 1
 0 <= Lambda(107) <= 1
 0 <= Lambda(108) <= 1
 0 <= Lambda(109) <= 1
 0 <= Lambda(110) <= 1
 0 <= Lambda(111) <= 1
 0 <= Lambda(112) <= 1
 0 <= Lambda(113) <= 1
 0 <= Lambda(114) <= 1
 0 <= Lambda(115) <= 1
 0 <= Lambda(116) <= 1
 0 <= Lambda(117) <= 1
 0 <= Lambda(118) <= 1
 0 <= Lambda(119) <= 1
 0 <= Lambda(120) <= 1
 0 <= Lambda(121) <= 1
 0 <= Lambda(122) <= 1
 0 <= Lambda(123) <= 1
 0 <= Lambda(124) <= 1
 0 <= Lambda(125) <= 1
 0 <= Lambda(126) <= 1
 0 <= Lambda(127) <= 1
 0 <= Lambda(128) <= 1
 0 <= Lambda(129) <= 1
 0 <= Lambda(130) <= 1
 0 <= Lambda(131) <= 1
 0 <= Lambda(132) <= 1
 0 <= Lambda(133) <= 1
 0 <= Lambda(134) <= 1
 0 <= Lambda(135) <= 1
 0 <= Lambda(136) <= 1
 0 <= Lambda(137) <= 1
 0 <= Lambda(138) <= 1
 0 <= Lambda(139) <= 1
 0 <= Lambda(140) <= 1
 0 <= Lambda(141) <= 1
 0 <= Lambda(142) <= 1
 0 <= Lambda(143) <= 1
 0 <= Lambda(144) <= 1
 0 <= Lambda(145) <= 1
 0 <= Lambda(146) <= 1
 0 <= Lambda(147) <= 1
 0 <= Lambda(148) <= 1
 0 <= Lambda(149) <= 1
 0 <= Lambda(150) <= 1
 0 <= Lambda(151) <= 1
 0 <= Lambda(152) <= 1
 0 <= Lambda(153) <= 1
 0 <= Lambda(154) <= 1
 0 <= Lambda(155) <= 1
 0 <= Lambda(156) <= 1
 0 <= Lambda(157) <= 1
 0 <= Lambda(158) <= 1
 0 <= Lambda(159) <= 1
 0 <= Lambda(160) <= 1
 0 <= Lambda(161) <= 1
 0 <= Lambda(162) <= 1
 0 <= Lambda(163) <= 1
 0 <= Lambda(164) <= 1
 0 <= Lambda(165) <= 1
 0 <= Lambda(166) <= 1
 0 <= Lambda(167) <= 1
 0 <= Lambda(168) <= 1
 0 <= Lambda(169) <= 1
 0 <= Lambda(170) <= 1
 0 <= Lambda(171) <= 1
 0 <= Lambda(172) <= 1
 0 <= Lambda(173) <= 1
 0 <= Lambda(174) <= 1
 0 <= Lambda(175) <= 1
 0 <= Lambda(176) <= 1
 0 <= Lambda(177) <= 1
 0 <= Lambda(178) <= 1
 0 <= Lambda(179) <= 1
 0 <= Lambda(180) <= 1
 0 <= Lambda(181) <= 1
 0 <= Lambda(182) <= 1
 0 <= Lambda(183) <= 1
 0 <= Lambda(184) <= 1
 0 <= Lambda(185) <= 1
 0 <= Lambda(186) <= 1
 0 <= Lambda(187) <= 1
 0 <= Lambda(188) <= 1
 0 <= Lambda(189) <= 1
 0 <= Lambda(190) <= 1
 0 <= Lambda(191) <= 1
 0 <= Lambda(192) <= 1
 0 <= Lambda(193) <= 1
 0 <= Lambda(194) <= 1
 0 <= Lambda(195) <= 1
 0 <= Lambda(196) <= 1
 0 <= Lambda(197) <= 1
 0 <= Lambda(198) <= 1
 0 <= Lambda(199) <= 1
 0 <= Lambda(200) <= 1
 0 <= Lambda(201) <= 1
Binaries
 Lambda(1)  Lambda(2)  Lambda(3)  Lambda(4)  Lambda(5)  Lambda(6)  Lambda(7) 
 Lambda(8)  Lambda(9)  Lambda(10)  Lambda(11)  Lambda(12)  Lambda(13) 
 Lambda(14)  Lambda(15)  Lambda(16)  Lambda(17)  Lambda(18)  Lambda(19) 
 Lambda(20)  Lambda(21)  Lambda(22)  Lambda(23)  Lambda(24)  Lambda(25) 
 Lambda(26)  Lambda(27)  Lambda(28)  Lambda(29)  Lambda(30)  Lambda(31) 
 Lambda(32)  Lambda(33)  Lambda(34)  Lambda(35)  Lambda(36)  Lambda(37) 
 Lambda(38)  Lambda(39)  Lambda(40)  Lambda(41)  Lambda(42)  Lambda(43) 
 Lambda(44)  Lambda(45)  Lambda(46)  Lambda(47)  Lambda(48)  Lambda(49) 
 Lambda(50)  Lambda(51)  Lambda(52)  Lambda(53)  Lambda(54)  Lambda(55) 
 Lambda(56)  Lambda(57)  Lambda(58)  Lambda(59)  Lambda(60)  Lambda(61) 
 Lambda(62)  Lambda(63)  Lambda(64)  Lambda(65)  Lambda(66)  Lambda(67) 
 Lambda(68)  Lambda(69)  Lambda(70)  Lambda(71)  Lambda(72)  Lambda(73) 
 Lambda(74)  Lambda(75)  Lambda(76)  Lambda(77)  Lambda(78)  Lambda(79) 
 Lambda(80)  Lambda(81)  Lambda(82)  Lambda(83)  Lambda(84)  Lambda(85) 
 Lambda(86)  Lambda(87)  Lambda(88)  Lambda(89)  Lambda(90)  Lambda(91) 
 Lambda(92)  Lambda(93)  Lambda(94)  Lambda(95)  Lambda(96)  Lambda(97) 
 Lambda(98)  Lambda(99)  Lambda(100)  Lambda(101)  Lambda(102)  Lambda(103) 
 Lambda(104)  Lambda(105)  Lambda(106)  Lambda(107)  Lambda(108)  Lambda(109) 
 Lambda(110)  Lambda(111)  Lambda(112)  Lambda(113)  Lambda(114)  Lambda(115) 
 Lambda(116)  Lambda(117)  Lambda(118)  Lambda(119)  Lambda(120)  Lambda(121) 
 Lambda(122)  Lambda(123)  Lambda(124)  Lambda(125)  Lambda(126)  Lambda(127) 
 Lambda(128)  Lambda(129)  Lambda(130)  Lambda(131)  Lambda(132)  Lambda(133) 
 Lambda(134)  Lambda(135)  Lambda(136)  Lambda(137)  Lambda(138)  Lambda(139) 
 Lambda(140)  Lambda(141)  Lambda(142)  Lambda(143)  Lambda(144)  Lambda(145) 
 Lambda(146)  Lambda(147)  Lambda(148)  Lambda(149)  Lambda(150)  Lambda(151) 
 Lambda(152)  Lambda(153)  Lambda(154)  Lambda(155)  Lambda(156)  Lambda(157) 
 Lambda(158)  Lambda(159)  Lambda(160)  Lambda(161)  Lambda(162)  Lambda(163) 
 Lambda(164)  Lambda(165)  Lambda(166)  Lambda(167)  Lambda(168)  Lambda(169) 
 Lambda(170)  Lambda(171)  Lambda(172)  Lambda(173)  Lambda(174)  Lambda(175) 
 Lambda(176)  Lambda(177)  Lambda(178)  Lambda(179)  Lambda(180)  Lambda(181) 
 Lambda(182)  Lambda(183)  Lambda(184)  Lambda(185)  Lambda(186)  Lambda(187) 
 Lambda(188)  Lambda(189)  Lambda(190)  Lambda(191)  Lambda(192)  Lambda(193) 
 Lambda(194)  Lambda(195)  Lambda(196)  Lambda(197)  Lambda(198)  Lambda(199) 
 Lambda(200)  Lambda(201) 
End
